========================================================== 
File name: C:\DEGR\assets\definitions\MSRCPSP_Gen\100_10_64_5_A.def
Creation date: Wed May 03 10:37:52 CEST 2023
Website: http://imopse.ii.pwr.edu.pl/ 
Reference: 
Myszkowski P. B., Skowronski M. E., Olech L., Oslizlo K., 
Hybrid Ant Colony Optimization in solving Multi-Skill Resource-Constrained Project Scheduling Problem, 
Soft Computing, DOI: DOI 10.1007/s00500-014-1455-x 
========================================================== 
General characteristics: 
Tasks: 100
Resources: 10
Precedence relations: 63
Number of skill types: 5
========================================================== 
ResourceID 	 Salary 	 Skills 
1	 	 	29.2	 	 Q1: 1 	  Q3: 3 	  Q2: 0 	  Q4: 2 	 
2	 	 	99.6	 	 Q1: 0 	  Q0: 3 	  Q2: 3 	  Q4: 1 	 
3	 	 	69.9	 	 Q0: 1 	 
4	 	 	82.5	 	 Q3: 1 	  Q1: 1 	 
5	 	 	52.9	 	 Q2: 0 	  Q0: 2 	 
6	 	 	25.2	 	 Q1: 0 	  Q3: 2 	  Q4: 0 	 
7	 	 	63.4	 	 Q2: 2 	  Q0: 2 	 
8	 	 	53.0	 	 Q0: 1 	  Q2: 1 	 
9	 	 	17.6	 	 Q1: 3 	  Q4: 0 	 
10	 	 	86.9	 	 Q3: 0 	  Q1: 2 	 
========================================================== 
TaskID 	 Duration 	 Skill 	 Predecessor IDs 
1	24	Q1:	0
2	40	Q3:	0
3	14	Q0:	3
4	38	Q3:	0
5	13	Q1:	0
6	39	Q1:	3
7	33	Q1:	1	5
8	33	Q1:	3
9	9	Q2:	0
10	22	Q2:	1
11	34	Q2:	1
12	34	Q2:	0
13	34	Q2:	2
14	16	Q4:	1
15	15	Q2:	0	7
16	13	Q2:	1
17	27	Q4:	1	1
18	33	Q3:	3
19	10	Q3:	0
20	9	Q2:	1
21	29	Q3:	0
22	26	Q1:	3
23	32	Q4:	2
24	37	Q3:	0
25	40	Q3:	1
26	25	Q0:	1	16
27	27	Q2:	0
28	35	Q1:	0
29	31	Q3:	2
30	18	Q2:	2
31	8	Q1:	1
32	29	Q3:	0
33	22	Q3:	0
34	31	Q3:	0	26
35	25	Q4:	2	26
36	24	Q4:	1
37	35	Q1:	0	9
38	38	Q2:	1
39	29	Q3:	3	35
40	31	Q3:	0
41	33	Q2:	2	31
42	18	Q0:	1	33
43	9	Q0:	2
44	18	Q1:	1
45	35	Q0:	2
46	11	Q3:	1
47	13	Q2:	1
48	38	Q1:	1	7
49	20	Q1:	2	39
50	32	Q0:	3	29
51	39	Q1:	1	45
52	27	Q1:	3
53	10	Q3:	1	43
54	32	Q2:	1
55	19	Q0:	2	50
56	32	Q0:	1
57	34	Q1:	1	10
58	28	Q2:	2	16
59	40	Q3:	0	19	51
60	16	Q1:	1	58	46	33
61	24	Q2:	2
62	21	Q2:	1	42
63	38	Q0:	3	45
64	23	Q3:	3
65	16	Q1:	1	41
66	39	Q3:	2	41
67	18	Q3:	0	13	51
68	18	Q3:	1	9
69	30	Q4:	0
70	40	Q4:	2	36
71	37	Q4:	1
72	19	Q2:	2	30	64
73	18	Q0:	1
74	16	Q0:	3	50
75	10	Q2:	0
76	28	Q3:	3	44
77	24	Q2:	3	60	35
78	33	Q2:	0
79	17	Q2:	3	27
80	10	Q1:	2
81	16	Q1:	3	11	43
82	36	Q3:	0
83	26	Q2:	1
84	17	Q3:	0	58	21
85	23	Q2:	3
86	9	Q1:	0	57
87	32	Q3:	2	56
88	24	Q3:	3	61
89	19	Q3:	3	61	41
90	23	Q0:	2
91	15	Q2:	0	82	74	58
92	36	Q0:	3	39
93	23	Q4:	1	1
94	15	Q0:	3	7	6	83
95	30	Q3:	0	59
96	34	Q4:	1
97	36	Q4:	1	8	74
98	27	Q2:	1	43	26	61	59
99	40	Q4:	2
100	17	Q2:	3	27
========================================================== 